(declare-fun temp3798_2 () (_ BitVec 64))
(declare-fun temp3798_1 () (_ BitVec 64))
(declare-fun temp3798_4 () (_ BitVec 64))
(declare-fun temp3798_3 () (_ BitVec 64))
(declare-fun temp3798_6 () (_ BitVec 64))
(declare-fun temp3798_5 () (_ BitVec 64))
(declare-fun temp3798_8 () (_ BitVec 64))
(declare-fun temp3798_7 () (_ BitVec 64))
(declare-fun temp3798_10 () (_ BitVec 64))
(declare-fun temp3798_9 () (_ BitVec 64))
(declare-fun temp3798_11 () (_ BitVec 64))
(declare-fun var2298106 () (_ BitVec 64))
(declare-fun var2298114 () (_ BitVec 64))
(declare-fun temp3798_12 () (_ BitVec 64))
(declare-fun var3548250 () (_ BitVec 64))
(declare-fun temp3798_13 () (_ BitVec 64))
(declare-fun temp3798_15 () (_ BitVec 64))
(declare-fun temp3798_14 () (_ BitVec 64))
(assert (= temp3798_2 #x0000000000000000))
(assert (= temp3798_1 temp3798_2))
(assert (= temp3798_4 #x0000000000000000))
(assert (= temp3798_3 temp3798_4))
(assert (= temp3798_6 #x0000000000000000))
(assert (= temp3798_5 temp3798_6))
(assert (= temp3798_8 #x000000000000002b))
(assert (= temp3798_7 temp3798_8))
(assert (= temp3798_10 #x0000000000000001))
(assert (= temp3798_9 temp3798_10))
(assert (= temp3798_11 #x0000000000000001))
(assert (= var2298106 temp3798_11))
(assert (= var2298114 var2298106))
(assert (= temp3798_12 #x0000000000000000))
(assert (= var3548250 temp3798_12))
(assert (= temp3798_13 #x0000000000000000))
(assert (or false (= var3548250 temp3798_13)))
(assert (= temp3798_15 #x0000000000000001))
(assert (= temp3798_14 temp3798_15))
(model-add temp3798_2 () (_ BitVec 64) #x0000000000000000)
(model-add temp3798_1 () (_ BitVec 64) #x0000000000000000)
(model-add temp3798_4 () (_ BitVec 64) #x0000000000000000)
(model-add temp3798_3 () (_ BitVec 64) #x0000000000000000)
(model-add temp3798_6 () (_ BitVec 64) #x0000000000000000)
(model-add temp3798_5 () (_ BitVec 64) #x0000000000000000)
(model-add temp3798_8 () (_ BitVec 64) #x000000000000002b)
(model-add temp3798_7 () (_ BitVec 64) #x000000000000002b)
(model-add temp3798_10 () (_ BitVec 64) #x0000000000000001)
(model-add temp3798_9 () (_ BitVec 64) #x0000000000000001)
(model-add temp3798_11 () (_ BitVec 64) #x0000000000000001)
(model-add var2298106 () (_ BitVec 64) #x0000000000000001)
(model-add var2298114 () (_ BitVec 64) #x0000000000000001)
(model-add temp3798_12 () (_ BitVec 64) #x0000000000000000)
(model-add var3548250 () (_ BitVec 64) #x0000000000000000)
(model-add temp3798_13 () (_ BitVec 64) #x0000000000000000)





